presolving:
(round 1, fast)       3700 del vars, 455 del conss, 0 add conss, 1200 chg bounds, 0 chg sides, 0 chg coeffs, 0 upgd conss, 0 impls, 1459 clqs
(round 2, fast)       3750 del vars, 1628 del conss, 0 add conss, 1200 chg bounds, 0 chg sides, 0 chg coeffs, 0 upgd conss, 0 impls, 1459 clqs
(round 3, fast)       3761 del vars, 1628 del conss, 0 add conss, 1200 chg bounds, 0 chg sides, 0 chg coeffs, 0 upgd conss, 0 impls, 1459 clqs
   (0.1s) running MILP presolver
   (0.1s) MILP presolver found nothing
(round 4, exhaustive) 3761 del vars, 1628 del conss, 0 add conss, 1200 chg bounds, 0 chg sides, 0 chg coeffs, 1453 upgd conss, 0 impls, 1459 clqs
(round 5, exhaustive) 3761 del vars, 1628 del conss, 0 add conss, 1200 chg bounds, 0 chg sides, 27 chg coeffs, 1453 upgd conss, 0 impls, 1459 clqs
   (0.1s) probing: 51/1389 (3.7%) - 0 fixings, 0 aggregations, 0 implications, 0 bound changes
   (0.1s) probing aborted: 50/50 successive totally useless probings
   (0.1s) symmetry computation started: requiring (bin +, int -, cont +), (fixed: bin -, int +, cont -)
   (0.1s) no symmetry present
presolving (6 rounds: 6 fast, 3 medium, 3 exhaustive):
 3761 deleted vars, 1629 deleted constraints, 0 added constraints, 1200 tightened bounds, 0 added holes, 0 changed sides, 27 changed coefficients
 0 implications, 1486 cliques
presolved problem has 1389 variables (1389 bin, 0 int, 0 impl, 0 cont) and 1452 constraints
     27 constraints of type <knapsack>
   1400 constraints of type <setppc>
     25 constraints of type <logicor>
Presolving Time: 0.13

 time | node  | left  |LP iter|LP it/n|mem/heur|mdpt |vars |cons |rows |cuts |sepa|confs|strbr|  dualbound   | primalbound  |  gap   | compl. 
p 0.2s|     1 |     0 |     0 |     - |  clique|   0 |1389 |1452 |1452 |   0 |  0 |   0 |   0 | 0.000000e+00 | 2.503840e+03 |    Inf | unknown
  0.4s|     1 |     0 |  1432 |     - |    31M |   0 |1389 |1496 |1452 |   0 |  0 |  44 |   0 | 7.198846e+02 | 2.503840e+03 | 247.81%| unknown
r 0.4s|     1 |     0 |  1432 |     - |shifting|   0 |1389 |1496 |1452 |   0 |  0 |  44 |   0 | 7.198846e+02 | 1.156498e+03 |  60.65%| unknown
  0.4s|     1 |     0 |  1448 |     - |    32M |   0 |1389 |1496 |1455 |   3 |  1 |  44 |   0 | 7.203720e+02 | 1.156498e+03 |  60.54%| unknown
r 0.4s|     1 |     0 |  1448 |     - |shifting|   0 |1389 |1496 |1455 |   3 |  1 |  44 |   0 | 7.203720e+02 | 1.072284e+03 |  48.85%| unknown
  0.5s|     1 |     0 |  1483 |     - |    32M |   0 |1389 |1496 |1458 |   6 |  2 |  44 |   0 | 7.208569e+02 | 1.072284e+03 |  48.75%| unknown
  0.5s|     1 |     0 |  1495 |     - |    32M |   0 |1389 |1496 |1461 |   9 |  3 |  44 |   0 | 7.209619e+02 | 1.072284e+03 |  48.73%| unknown
  0.6s|     1 |     0 |  1519 |     - |    32M |   0 |1389 |1496 |1462 |  10 |  4 |  44 |   0 | 7.216444e+02 | 1.072284e+03 |  48.59%| unknown
  0.6s|     1 |     0 |  1546 |     - |    32M |   0 |1389 |1496 |1466 |  14 |  5 |  44 |   0 | 7.219152e+02 | 1.072284e+03 |  48.53%| unknown
  0.6s|     1 |     0 |  1574 |     - |    32M |   0 |1389 |1496 |1470 |  18 |  6 |  44 |   0 | 7.222580e+02 | 1.072284e+03 |  48.46%| unknown
  0.7s|     1 |     0 |  1593 |     - |    33M |   0 |1389 |1496 |1473 |  21 |  7 |  44 |   0 | 7.224235e+02 | 1.072284e+03 |  48.43%| unknown
  0.7s|     1 |     0 |  1597 |     - |    33M |   0 |1389 |1496 |1474 |  22 |  8 |  44 |   0 | 7.224272e+02 | 1.072284e+03 |  48.43%| unknown
  0.8s|     1 |     0 |  1621 |     - |    33M |   0 |1389 |1496 |1476 |  24 |  9 |  44 |   0 | 7.225222e+02 | 1.072284e+03 |  48.41%| unknown
  0.9s|     1 |     0 |  1634 |     - |    34M |   0 |1389 |1496 |1478 |  26 | 10 |  44 |   0 | 7.227163e+02 | 1.072284e+03 |  48.37%| unknown
  0.9s|     1 |     0 |  1670 |     - |    34M |   0 |1389 |1496 |1483 |  31 | 11 |  44 |   0 | 7.236461e+02 | 1.072284e+03 |  48.18%| unknown
 time | node  | left  |LP iter|LP it/n|mem/heur|mdpt |vars |cons |rows |cuts |sepa|confs|strbr|  dualbound   | primalbound  |  gap   | compl. 
  1.0s|     1 |     0 |  1693 |     - |    35M |   0 |1389 |1496 |1487 |  35 | 12 |  44 |   0 | 7.238573e+02 | 1.072284e+03 |  48.13%| unknown
  1.0s|     1 |     0 |  1715 |     - |    35M |   0 |1389 |1496 |1489 |  37 | 13 |  44 |   0 | 7.240410e+02 | 1.072284e+03 |  48.10%| unknown
  1.0s|     1 |     0 |  1739 |     - |    35M |   0 |1389 |1496 |1490 |  38 | 14 |  44 |   0 | 7.243095e+02 | 1.072284e+03 |  48.04%| unknown
  1.1s|     1 |     0 |  1748 |     - |    35M |   0 |1389 |1496 |1493 |  41 | 15 |  44 |   0 | 7.243154e+02 | 1.072284e+03 |  48.04%| unknown
  1.1s|     1 |     0 |  1767 |     - |    35M |   0 |1389 |1496 |1493 |  42 | 16 |  44 |   0 | 7.243497e+02 | 1.072284e+03 |  48.03%| unknown
  1.1s|     1 |     0 |  1776 |     - |    35M |   0 |1389 |1496 |1494 |  43 | 17 |  44 |   0 | 7.243743e+02 | 1.072284e+03 |  48.03%| unknown
  1.1s|     1 |     0 |  1827 |     - |    35M |   0 |1389 |1496 |1497 |  46 | 18 |  44 |   0 | 7.245531e+02 | 1.072284e+03 |  47.99%| unknown
  1.2s|     1 |     0 |  1837 |     - |    36M |   0 |1389 |1496 |1500 |  49 | 19 |  44 |   0 | 7.245915e+02 | 1.072284e+03 |  47.98%| unknown
  1.2s|     1 |     0 |  1846 |     - |    36M |   0 |1389 |1496 |1502 |  51 | 20 |  44 |   0 | 7.246014e+02 | 1.072284e+03 |  47.98%| unknown
  1.2s|     1 |     0 |  1852 |     - |    36M |   0 |1389 |1496 |1504 |  53 | 21 |  44 |   0 | 7.246472e+02 | 1.072284e+03 |  47.97%| unknown
L 2.4s|     1 |     0 |  5888 |     - |    rens|   0 |1389 |1497 |1504 |  53 | 23 |  48 |   0 | 7.246472e+02 | 7.506693e+02 |   3.59%| unknown
  2.4s|     1 |     0 |  5888 |     - |    37M |   0 |1389 |1497 |1504 |  53 | 23 |  48 |   0 | 7.246472e+02 | 7.506693e+02 |   3.59%| unknown
  2.4s|     1 |     0 |  5888 |     - |    37M |   0 |1389 |1497 | 955 |  53 | 23 |  48 |   0 | 7.246472e+02 | 7.506693e+02 |   3.59%| unknown
  2.4s|     1 |     0 |  5888 |     - |    37M |   0 |1389 | 946 | 952 |  53 | 24 |  48 |   0 | 7.246472e+02 | 7.506693e+02 |   3.59%| unknown
(run 1, node 1) restarting after 580 global fixings of integer variables

(restart) converted 43 cuts from the global cut pool into linear constraints

presolving:
(round 1, fast)       580 del vars, 33 del conss, 0 add conss, 0 chg bounds, 0 chg sides, 423 chg coeffs, 0 upgd conss, 0 impls, 871 clqs
   (2.4s) running MILP presolver
   (2.4s) MILP presolver found nothing
(round 2, exhaustive) 580 del vars, 33 del conss, 0 add conss, 0 chg bounds, 0 chg sides, 423 chg coeffs, 39 upgd conss, 0 impls, 871 clqs
(round 3, medium)     580 del vars, 33 del conss, 0 add conss, 0 chg bounds, 5 chg sides, 439 chg coeffs, 39 upgd conss, 0 impls, 871 clqs
(round 4, exhaustive) 580 del vars, 33 del conss, 0 add conss, 0 chg bounds, 5 chg sides, 447 chg coeffs, 39 upgd conss, 0 impls, 871 clqs
(round 5, exhaustive) 580 del vars, 36 del conss, 0 add conss, 0 chg bounds, 5 chg sides, 447 chg coeffs, 39 upgd conss, 0 impls, 871 clqs
presolving (6 rounds: 6 fast, 5 medium, 4 exhaustive):
 580 deleted vars, 36 deleted constraints, 0 added constraints, 0 tightened bounds, 0 added holes, 5 changed sides, 447 changed coefficients
 0 implications, 871 cliques
presolved problem has 809 variables (809 bin, 0 int, 0 impl, 0 cont) and 932 constraints
     63 constraints of type <knapsack>
    833 constraints of type <setppc>
      4 constraints of type <linear>
     32 constraints of type <logicor>
Presolving Time: 0.17
transformed 3/4 original solutions to the transformed problem space

 time | node  | left  |LP iter|LP it/n|mem/heur|mdpt |vars |cons |rows |cuts |sepa|confs|strbr|  dualbound   | primalbound  |  gap   | compl. 
  2.6s|     1 |     0 |  7098 |     - |    38M |   0 | 809 | 932 | 923 |   0 |  0 |  48 |   0 | 7.246767e+02 | 7.506693e+02 |   3.59%| unknown
  2.6s|     1 |     0 |  7098 |     - |    38M |   0 | 809 | 932 | 865 |   0 |  0 |  48 |   0 | 7.246767e+02 | 7.506693e+02 |   3.59%| unknown
  2.9s|     1 |     0 |  7169 |     - |    43M |   0 | 809 | 874 | 870 |   6 |  1 |  48 |   0 | 7.254228e+02 | 7.506693e+02 |   3.48%| unknown
  2.9s|     1 |     0 |  7169 |     - |    43M |   0 | 809 | 874 | 856 |   6 |  1 |  48 |   0 | 7.254228e+02 | 7.506693e+02 |   3.48%| unknown
  3.2s|     1 |     0 |  7203 |     - |    45M |   0 | 809 | 859 | 864 |  14 |  2 |  48 |   0 | 7.257634e+02 | 7.506693e+02 |   3.43%| unknown
  3.2s|     1 |     0 |  7203 |     - |    45M |   0 | 809 | 859 | 862 |  14 |  2 |  48 |   0 | 7.257634e+02 | 7.506693e+02 |   3.43%| unknown
  3.4s|     1 |     0 |  7226 |     - |    49M |   0 | 809 | 857 | 867 |  19 |  3 |  48 |   0 | 7.259397e+02 | 7.506693e+02 |   3.41%| unknown
  3.4s|     1 |     0 |  7226 |     - |    49M |   0 | 809 | 857 | 863 |  19 |  3 |  48 |   0 | 7.259397e+02 | 7.506693e+02 |   3.41%| unknown
  3.7s|     1 |     0 |  7275 |     - |    52M |   0 | 809 | 853 | 867 |  23 |  4 |  48 |   0 | 7.262429e+02 | 7.506693e+02 |   3.36%| unknown
  3.7s|     1 |     0 |  7275 |     - |    52M |   0 | 809 | 853 | 865 |  23 |  4 |  48 |   0 | 7.262429e+02 | 7.506693e+02 |   3.36%| unknown
  4.0s|     1 |     0 |  7320 |     - |    54M |   0 | 809 | 851 | 867 |  25 |  5 |  48 |   0 | 7.265764e+02 | 7.506693e+02 |   3.32%| unknown
  4.1s|     1 |     0 |  7320 |     - |    54M |   0 | 809 | 851 | 863 |  25 |  5 |  48 |   0 | 7.265764e+02 | 7.506693e+02 |   3.32%| unknown
  4.4s|     1 |     0 |  7430 |     - |    59M |   0 | 809 | 847 | 865 |  27 |  6 |  48 |   0 | 7.270492e+02 | 7.506693e+02 |   3.25%| unknown
  4.4s|     1 |     0 |  7430 |     - |    59M |   0 | 809 | 847 | 864 |  27 |  6 |  48 |   0 | 7.270492e+02 | 7.506693e+02 |   3.25%| unknown
  4.7s|     1 |     0 |  7466 |     - |    62M |   0 | 809 | 846 | 866 |  29 |  7 |  48 |   0 | 7.271342e+02 | 7.506693e+02 |   3.24%| unknown
 time | node  | left  |LP iter|LP it/n|mem/heur|mdpt |vars |cons |rows |cuts |sepa|confs|strbr|  dualbound   | primalbound  |  gap   | compl. 
  4.8s|     1 |     0 |  7466 |     - |    62M |   0 | 809 | 846 | 865 |  29 |  7 |  48 |   0 | 7.271342e+02 | 7.506693e+02 |   3.24%| unknown
  5.1s|     1 |     0 |  7495 |     - |    66M |   0 | 809 | 845 | 866 |  30 |  8 |  48 |   0 | 7.271605e+02 | 7.506693e+02 |   3.23%| unknown
  5.5s|     1 |     0 |  7587 |     - |    69M |   0 | 809 | 845 | 868 |  32 |  9 |  48 |   0 | 7.272179e+02 | 7.506693e+02 |   3.22%| unknown
  5.9s|     1 |     0 |  7645 |     - |    73M |   0 | 809 | 845 | 869 |  33 | 10 |  48 |   0 | 7.272634e+02 | 7.506693e+02 |   3.22%| unknown
  5.9s|     1 |     0 |  7645 |     - |    73M |   0 | 809 | 845 | 868 |  33 | 10 |  48 |   0 | 7.272634e+02 | 7.506693e+02 |   3.22%| unknown
  5.9s|     1 |     0 |  7674 |     - |    73M |   0 | 809 | 844 | 870 |  35 | 11 |  48 |   0 | 7.272870e+02 | 7.506693e+02 |   3.22%| unknown
  6.0s|     1 |     0 |  7684 |     - |    73M |   0 | 809 | 844 | 872 |  37 | 12 |  48 |   0 | 7.272900e+02 | 7.506693e+02 |   3.21%| unknown
  6.1s|     1 |     0 |  7711 |     - |    73M |   0 | 809 | 844 | 874 |  39 | 13 |  48 |   0 | 7.273012e+02 | 7.506693e+02 |   3.21%| unknown
  6.1s|     1 |     0 |  7711 |     - |    73M |   0 | 809 | 844 | 873 |  39 | 13 |  48 |   0 | 7.273012e+02 | 7.506693e+02 |   3.21%| unknown
  6.2s|     1 |     0 |  7720 |     - |    73M |   0 | 809 | 843 | 850 |  41 | 14 |  48 |   0 | 7.273021e+02 | 7.506693e+02 |   3.21%| unknown
  6.3s|     1 |     0 |  7734 |     - |    73M |   0 | 809 | 843 | 851 |  42 | 15 |  48 |   0 | 7.273040e+02 | 7.506693e+02 |   3.21%| unknown
  6.4s|     1 |     0 |  7745 |     - |    73M |   0 | 809 | 843 | 854 |  45 | 16 |  48 |   0 | 7.273059e+02 | 7.506693e+02 |   3.21%| unknown
  6.5s|     1 |     0 |  7771 |     - |    73M |   0 | 809 | 843 | 858 |  49 | 17 |  48 |   0 | 7.273142e+02 | 7.506693e+02 |   3.21%| unknown
L 7.1s|     1 |     0 | 10604 |     - |    rens|   0 | 809 | 865 | 858 |  49 | 17 |  72 |   0 | 7.273142e+02 | 7.465095e+02 |   2.64%| unknown
(run 2, node 1) restarting after 91 global fixings of integer variables

(restart) converted 42 cuts from the global cut pool into linear constraints

presolving:
(round 1, fast)       91 del vars, 1 del conss, 0 add conss, 0 chg bounds, 1 chg sides, 51 chg coeffs, 0 upgd conss, 0 impls, 749 clqs
(round 2, medium)     91 del vars, 5 del conss, 3 add conss, 0 chg bounds, 1 chg sides, 51 chg coeffs, 0 upgd conss, 0 impls, 749 clqs
(round 3, exhaustive) 91 del vars, 5 del conss, 3 add conss, 0 chg bounds, 1 chg sides, 51 chg coeffs, 27 upgd conss, 0 impls, 749 clqs
(round 4, fast)       91 del vars, 5 del conss, 3 add conss, 0 chg bounds, 1 chg sides, 63 chg coeffs, 27 upgd conss, 0 impls, 749 clqs
(round 5, medium)     91 del vars, 5 del conss, 3 add conss, 0 chg bounds, 4 chg sides, 69 chg coeffs, 27 upgd conss, 0 impls, 749 clqs
(round 6, exhaustive) 91 del vars, 18 del conss, 3 add conss, 0 chg bounds, 4 chg sides, 83 chg coeffs, 27 upgd conss, 0 impls, 749 clqs
(round 7, exhaustive) 91 del vars, 24 del conss, 3 add conss, 0 chg bounds, 4 chg sides, 83 chg coeffs, 27 upgd conss, 0 impls, 749 clqs
presolving (8 rounds: 8 fast, 6 medium, 4 exhaustive):
 91 deleted vars, 24 deleted constraints, 3 added constraints, 0 tightened bounds, 0 added holes, 4 changed sides, 83 changed coefficients
 0 implications, 749 cliques
presolved problem has 718 variables (718 bin, 0 int, 0 impl, 0 cont) and 886 constraints
     88 constraints of type <knapsack>
    743 constraints of type <setppc>
     19 constraints of type <linear>
     36 constraints of type <logicor>
Presolving Time: 0.21
transformed 4/5 original solutions to the transformed problem space

 time | node  | left  |LP iter|LP it/n|mem/heur|mdpt |vars |cons |rows |cuts |sepa|confs|strbr|  dualbound   | primalbound  |  gap   | compl. 
  7.3s|     1 |     0 | 11423 |     - |    59M |   0 | 718 | 886 | 866 |   0 |  0 |  72 |   0 | 7.273142e+02 | 7.465095e+02 |   2.64%| unknown
  7.3s|     1 |     0 | 11423 |     - |    59M |   0 | 718 | 886 | 744 |   0 |  0 |  72 |   0 | 7.273142e+02 | 7.465095e+02 |   2.64%| unknown
  7.7s|     1 |     0 | 11469 |     - |    59M |   0 | 718 | 764 | 746 |   4 |  1 |  72 |   0 | 7.273285e+02 | 7.465095e+02 |   2.64%| unknown
  7.7s|     1 |     0 | 11469 |     - |    59M |   0 | 718 | 764 | 745 |   4 |  1 |  72 |   0 | 7.273285e+02 | 7.465095e+02 |   2.64%| unknown
  8.1s|     1 |     0 | 11495 |     - |    59M |   0 | 718 | 762 | 746 |   5 |  2 |  72 |   0 | 7.273556e+02 | 7.465095e+02 |   2.63%| unknown
  8.4s|     1 |     0 | 11515 |     - |    59M |   0 | 718 | 762 | 747 |   6 |  3 |  72 |   0 | 7.273812e+02 | 7.465095e+02 |   2.63%| unknown
  8.8s|     1 |     0 | 11539 |     - |    61M |   0 | 718 | 762 | 748 |   7 |  4 |  72 |   0 | 7.273897e+02 | 7.465095e+02 |   2.63%| unknown
  9.2s|     1 |     0 | 11569 |     - |    64M |   0 | 718 | 762 | 749 |   8 |  5 |  72 |   0 | 7.274055e+02 | 7.465095e+02 |   2.63%| unknown
  9.6s|     1 |     0 | 11605 |     - |    67M |   0 | 718 | 762 | 750 |   9 |  6 |  72 |   0 | 7.274261e+02 | 7.465095e+02 |   2.62%| unknown
 10.0s|     1 |     0 | 11641 |     - |    69M |   0 | 718 | 762 | 752 |  11 |  7 |  72 |   0 | 7.274379e+02 | 7.465095e+02 |   2.62%| unknown
 10.5s|     1 |     0 | 11725 |     - |    72M |   0 | 718 | 762 | 755 |  14 |  8 |  72 |   0 | 7.274955e+02 | 7.465095e+02 |   2.61%| unknown
 10.5s|     1 |     0 | 11725 |     - |    72M |   0 | 718 | 762 | 754 |  14 |  8 |  72 |   0 | 7.274955e+02 | 7.465095e+02 |   2.61%| unknown
 10.9s|     1 |     0 | 11757 |     - |    75M |   0 | 718 | 761 | 756 |  16 |  9 |  72 |   0 | 7.275244e+02 | 7.465095e+02 |   2.61%| unknown
 11.3s|     1 |     0 | 11815 |     - |    77M |   0 | 718 | 761 | 757 |  17 | 10 |  72 |   0 | 7.275533e+02 | 7.465095e+02 |   2.61%| unknown
 11.4s|     1 |     0 | 11845 |     - |    77M |   0 | 718 | 761 | 758 |  18 | 11 |  72 |   0 | 7.275655e+02 | 7.465095e+02 |   2.60%| unknown
(run 3, node 1) restarting after 148 global fixings of integer variables

(restart) converted 16 cuts from the global cut pool into linear constraints

presolving:
(round 1, fast)       148 del vars, 0 del conss, 0 add conss, 0 chg bounds, 1 chg sides, 19 chg coeffs, 0 upgd conss, 0 impls, 598 clqs
   (11.8s) running MILP presolver
   (11.8s) MILP presolver found nothing
(round 2, medium)     148 del vars, 0 del conss, 0 add conss, 0 chg bounds, 5 chg sides, 27 chg coeffs, 0 upgd conss, 0 impls, 598 clqs
(round 3, exhaustive) 148 del vars, 0 del conss, 0 add conss, 0 chg bounds, 5 chg sides, 27 chg coeffs, 6 upgd conss, 0 impls, 598 clqs
(round 4, medium)     148 del vars, 0 del conss, 0 add conss, 0 chg bounds, 8 chg sides, 33 chg coeffs, 6 upgd conss, 0 impls, 598 clqs
presolving (5 rounds: 5 fast, 4 medium, 2 exhaustive):
 148 deleted vars, 0 deleted constraints, 0 added constraints, 0 tightened bounds, 0 added holes, 8 changed sides, 34 changed coefficients
 0 implications, 598 cliques
presolved problem has 570 variables (570 bin, 0 int, 0 impl, 0 cont) and 758 constraints
     92 constraints of type <knapsack>
    598 constraints of type <setppc>
     29 constraints of type <linear>
     39 constraints of type <logicor>
Presolving Time: 0.25
transformed 4/6 original solutions to the transformed problem space

 time | node  | left  |LP iter|LP it/n|mem/heur|mdpt |vars |cons |rows |cuts |sepa|confs|strbr|  dualbound   | primalbound  |  gap   | compl. 
 11.9s|     1 |     0 | 13341 |     - |    69M |   0 | 570 | 758 | 735 |   0 |  0 |  75 |   0 | 7.275655e+02 | 7.465095e+02 |   2.60%| unknown
 11.9s|     1 |     0 | 13341 |     - |    69M |   0 | 570 | 758 | 709 |   0 |  0 |  75 |   0 | 7.275655e+02 | 7.465095e+02 |   2.60%| unknown
 12.3s|     1 |     0 | 13432 |     - |    69M |   0 | 570 | 732 | 710 |   2 |  1 |  75 |   0 | 7.276987e+02 | 7.465095e+02 |   2.58%| unknown
 12.3s|     1 |     0 | 13432 |     - |    69M |   0 | 570 | 732 | 708 |   2 |  1 |  75 |   0 | 7.276987e+02 | 7.465095e+02 |   2.58%| unknown
 12.7s|     1 |     0 | 13453 |     - |    71M |   0 | 570 | 729 | 709 |   3 |  2 |  75 |   0 | 7.277100e+02 | 7.465095e+02 |   2.58%| unknown
 13.0s|     1 |     0 | 13512 |     - |    72M |   0 | 570 | 729 | 710 |   4 |  3 |  75 |   0 | 7.277634e+02 | 7.465095e+02 |   2.58%| unknown
 13.1s|     1 |     0 | 13512 |     - |    72M |   0 | 570 | 729 | 707 |   4 |  3 |  75 |   0 | 7.277634e+02 | 7.465095e+02 |   2.58%| unknown
 13.4s|     1 |     0 | 13593 |     - |    76M |   0 | 570 | 726 | 708 |   5 |  4 |  75 |   0 | 7.278400e+02 | 7.465095e+02 |   2.57%| unknown
 13.5s|     1 |     0 | 13593 |     - |    76M |   0 | 570 | 726 | 706 |   5 |  4 |  75 |   0 | 7.278400e+02 | 7.465095e+02 |   2.57%| unknown
 13.8s|     1 |     0 | 13615 |     - |    78M |   0 | 570 | 724 | 708 |   7 |  5 |  75 |   0 | 7.278505e+02 | 7.465095e+02 |   2.56%| unknown
 14.2s|     1 |     0 | 13679 |     - |    81M |   0 | 570 | 724 | 709 |   8 |  6 |  75 |   0 | 7.278769e+02 | 7.465095e+02 |   2.56%| unknown
 14.6s|     1 |     0 | 13713 |     - |    82M |   0 | 570 | 724 | 710 |   9 |  7 |  75 |   0 | 7.278829e+02 | 7.465095e+02 |   2.56%| unknown
 15.0s|     1 |     0 | 13774 |     - |    85M |   0 | 570 | 724 | 711 |  10 |  8 |  75 |   0 | 7.279075e+02 | 7.465095e+02 |   2.56%| unknown
 15.4s|     1 |     0 | 13785 |     - |    88M |   0 | 570 | 724 | 712 |  11 |  9 |  75 |   0 | 7.279095e+02 | 7.465095e+02 |   2.56%| unknown
 15.8s|     1 |     0 | 13819 |     - |    90M |   0 | 570 | 724 | 713 |  12 | 10 |  75 |   0 | 7.279268e+02 | 7.465095e+02 |   2.55%| unknown
 time | node  | left  |LP iter|LP it/n|mem/heur|mdpt |vars |cons |rows |cuts |sepa|confs|strbr|  dualbound   | primalbound  |  gap   | compl. 
 15.8s|     1 |     0 | 13819 |     - |    90M |   0 | 570 | 724 | 712 |  12 | 10 |  75 |   0 | 7.279268e+02 | 7.465095e+02 |   2.55%| unknown
 16.0s|     1 |     0 | 13885 |     - |    90M |   0 | 570 | 723 | 718 |  18 | 11 |  75 |   0 | 7.279365e+02 | 7.465095e+02 |   2.55%| unknown
 16.2s|     1 |     0 | 13914 |     - |    90M |   0 | 570 | 723 | 720 |  20 | 12 |  75 |   0 | 7.279394e+02 | 7.465095e+02 |   2.55%| unknown
 16.2s|     1 |     0 | 13914 |     - |    90M |   0 | 570 | 723 | 718 |  20 | 12 |  75 |   0 | 7.279394e+02 | 7.465095e+02 |   2.55%| unknown
 16.4s|     1 |     0 | 13939 |     - |    90M |   0 | 570 | 721 | 719 |  21 | 13 |  75 |   0 | 7.279473e+02 | 7.465095e+02 |   2.55%| unknown
 16.4s|     1 |     0 | 13939 |     - |    90M |   0 | 570 | 721 | 716 |  21 | 13 |  75 |   0 | 7.279473e+02 | 7.465095e+02 |   2.55%| unknown
 16.5s|     1 |     0 | 13976 |     - |    90M |   0 | 570 | 718 | 660 |  22 | 14 |  75 |   0 | 7.279522e+02 | 7.465095e+02 |   2.55%| unknown
 18.1s|     1 |     2 | 14898 |     - |    90M |   0 | 570 | 719 | 660 |  22 | 14 |  86 |  25 | 7.301818e+02 | 7.465095e+02 |   2.24%| unknown
(run 4, node 1) restarting after 50 global fixings of integer variables

(restart) converted 18 cuts from the global cut pool into linear constraints

presolving:
(round 1, fast)       50 del vars, 0 del conss, 0 add conss, 0 chg bounds, 0 chg sides, 11 chg coeffs, 0 upgd conss, 0 impls, 549 clqs
(round 2, medium)     50 del vars, 0 del conss, 0 add conss, 0 chg bounds, 2 chg sides, 15 chg coeffs, 0 upgd conss, 0 impls, 549 clqs
(round 3, exhaustive) 50 del vars, 0 del conss, 0 add conss, 0 chg bounds, 2 chg sides, 15 chg coeffs, 7 upgd conss, 0 impls, 549 clqs
(round 4, medium)     50 del vars, 0 del conss, 0 add conss, 0 chg bounds, 3 chg sides, 18 chg coeffs, 7 upgd conss, 0 impls, 549 clqs
(round 5, exhaustive) 50 del vars, 1 del conss, 0 add conss, 0 chg bounds, 3 chg sides, 28 chg coeffs, 7 upgd conss, 0 impls, 549 clqs
(round 6, exhaustive) 50 del vars, 3 del conss, 0 add conss, 0 chg bounds, 3 chg sides, 28 chg coeffs, 7 upgd conss, 0 impls, 549 clqs
presolving (7 rounds: 7 fast, 6 medium, 4 exhaustive):
 50 deleted vars, 3 deleted constraints, 0 added constraints, 0 tightened bounds, 0 added holes, 3 changed sides, 28 changed coefficients
 0 implications, 549 cliques
presolved problem has 520 variables (520 bin, 0 int, 0 impl, 0 cont) and 734 constraints
     98 constraints of type <knapsack>
    549 constraints of type <setppc>
     40 constraints of type <linear>
     47 constraints of type <logicor>
Presolving Time: 0.29
transformed 5/7 original solutions to the transformed problem space

 time | node  | left  |LP iter|LP it/n|mem/heur|mdpt |vars |cons |rows |cuts |sepa|confs|strbr|  dualbound   | primalbound  |  gap   | compl. 
 18.3s|     1 |     0 | 15773 |     - |    75M |   0 | 520 | 734 | 703 |   0 |  0 |  86 |  25 | 7.301818e+02 | 7.465095e+02 |   2.24%| unknown
 18.7s|     1 |     0 | 15835 |     - |    75M |   0 | 520 | 734 | 704 |   1 |  1 |  86 |  25 | 7.301818e+02 | 7.465095e+02 |   2.24%| unknown
 19.0s|     1 |     0 | 15861 |     - |    75M |   0 | 520 | 734 | 705 |   2 |  2 |  86 |  25 | 7.301818e+02 | 7.465095e+02 |   2.24%| unknown
 19.4s|     1 |     0 | 15913 |     - |    76M |   0 | 520 | 734 | 707 |   4 |  3 |  86 |  25 | 7.301818e+02 | 7.465095e+02 |   2.24%| unknown
 19.8s|     1 |     0 | 15945 |     - |    78M |   0 | 520 | 734 | 708 |   5 |  4 |  86 |  25 | 7.301818e+02 | 7.465095e+02 |   2.24%| unknown
 20.3s|     1 |     0 | 15999 |     - |    81M |   0 | 520 | 734 | 709 |   6 |  5 |  86 |  25 | 7.301818e+02 | 7.465095e+02 |   2.24%| unknown
 20.3s|     1 |     0 | 15999 |     - |    81M |   0 | 520 | 734 | 708 |   6 |  5 |  86 |  25 | 7.301818e+02 | 7.465095e+02 |   2.24%| unknown
 20.7s|     1 |     0 | 16070 |     - |    82M |   0 | 520 | 733 | 709 |   7 |  6 |  86 |  25 | 7.301818e+02 | 7.465095e+02 |   2.24%| unknown
 21.0s|     1 |     0 | 16134 |     - |    84M |   0 | 520 | 733 | 711 |   9 |  7 |  86 |  25 | 7.301818e+02 | 7.465095e+02 |   2.24%| unknown
 21.4s|     1 |     0 | 16172 |     - |    85M |   0 | 520 | 733 | 712 |  10 |  8 |  86 |  25 | 7.301818e+02 | 7.465095e+02 |   2.24%| unknown
 21.9s|     1 |     0 | 16233 |     - |    87M |   0 | 520 | 733 | 715 |  13 |  9 |  86 |  25 | 7.301818e+02 | 7.465095e+02 |   2.24%| unknown
 22.2s|     1 |     0 | 16299 |     - |    88M |   0 | 520 | 733 | 716 |  14 | 10 |  86 |  25 | 7.301818e+02 | 7.465095e+02 |   2.24%| unknown
 22.4s|     1 |     0 | 16345 |     - |    88M |   0 | 520 | 733 | 717 |  15 | 11 |  86 |  25 | 7.301818e+02 | 7.465095e+02 |   2.24%| unknown
 23.9s|     1 |     0 | 16994 |     - |    88M |   0 | 520 | 736 | 717 |  15 | 11 |  90 |  52 | 7.301818e+02 | 7.465095e+02 |   2.24%| unknown
 23.9s|     1 |     0 | 16994 |     - |    88M |   0 | 520 | 736 | 690 |  15 | 11 |  90 |  52 | 7.301818e+02 | 7.465095e+02 |   2.24%| unknown
 time | node  | left  |LP iter|LP it/n|mem/heur|mdpt |vars |cons |rows |cuts |sepa|confs|strbr|  dualbound   | primalbound  |  gap   | compl. 
 24.1s|     1 |     0 | 17016 |     - |    88M |   0 | 520 | 708 | 691 |  16 | 12 |  90 |  52 | 7.301818e+02 | 7.465095e+02 |   2.24%| unknown
 24.1s|     1 |     0 | 17041 |     - |    89M |   0 | 520 | 708 | 630 |  22 | 13 |  90 |  52 | 7.301818e+02 | 7.465095e+02 |   2.24%| unknown
 25.1s|     1 |     2 | 17041 |     - |    89M |   0 | 520 | 708 | 630 |  22 | 13 |  90 |  81 | 7.307157e+02 | 7.465095e+02 |   2.16%| unknown
*28.2s|    37 |     8 | 19749 | 297.7 |strongbr|  10 | 520 | 809 | 587 |  43 |  7 | 192 | 453 | 7.343919e+02 | 7.456418e+02 |   1.53%|  29.86%
*28.7s|    50 |    11 | 20467 | 238.2 |    LP  |  10 | 520 | 838 | 607 |  71 |  5 | 223 | 500 | 7.343919e+02 | 7.432460e+02 |   1.21%|  34.50%
*30.3s|    97 |     6 | 22547 | 147.1 |    LP  |  10 | 520 | 928 | 598 | 122 |  5 | 313 | 672 | 7.368688e+02 | 7.390857e+02 |   0.30%|  58.57%
 30.4s|   100 |     3 | 22590 | 143.2 |   105M |  10 | 520 | 936 | 587 | 122 |  0 | 321 | 678 | 7.380135e+02 | 7.390857e+02 |   0.15%|  81.33%

SCIP Status        : problem is solved [optimal solution found]
Solving Time (sec) : 30.38
Solving Nodes      : 103 (total of 107 nodes in 5 runs)
Primal Bound       : +7.39085688432257e+02 (25 solutions)
Dual Bound         : +7.39085688432257e+02
Gap                : 0.00 %
Solve Status: optimal
Solve Time: 30.38 seconds
Objective Value: 739.09
